Route #1: 4 20 16 25 6 5 23 49 37 61 
Route #2: 18 14 57 29 12 11 13 
Route #3: 33 36 15 60 52 56 10 38 
Route #4: 2 50 63 47 31 8 
Route #5: 34 30 62 51 19 48 
Route #6: 9 22 55 42 27 44 53 
Route #7: 32 28 39 35 41 17 
Route #8: 21 3 59 54 7 45 46 
Route #9: 58 64 43 40 26 24 
cost 905.64
